NAME : XML100_3125_21
DIMENSION : 101
NB_CLUSTERS : 20
CLUSTERING_ALG : DBSCAN
CLUSTERING_PARAMS : eps(78), minSamples(3)
CLUSTERS
1 0
2 2 3 33 38 42 55 57 68
3 5 10 29 41 67 97
4 6 17 19 35 90 93
5 7 20 87 100
6 9 24 25 32 34 37 44 50 65 69 71 72 73 77 82
7 12 54 88
8 1 22 52 62 83
9 23 30 75 84 99
10 13 26 43 49 60 78
11 4 28 48 63 76 80 94
12 16 45 46 66 85
13 27 31 47 51 61 79
14 53 70 74 91
15 11 40 58 59 81 86 95 98
16 14 64
17 89 92 96
18 8 15 56
19 21 39
20 18 36
EOF